122 5
10 10 10 10 10 

0 0 0 0 0 0 5 2 14 26 38 50 
0 0 0 0 0 0 6 3 4 5 10 11 12 
1 0 0 1 0 0 2 9 8 
7 0 0 5 0 0 2 8 7 
6 0 0 4 0 0 1 6 
1 0 0 2 0 0 1 7 
7 0 0 1 0 0 1 13 
6 0 0 3 0 0 1 13 
8 0 0 3 0 0 1 13 
10 0 0 4 0 0 1 13 
2 0 0 1 0 0 1 13 
9 0 0 1 0 0 1 13 
0 0 0 0 0 0 1 62 
0 0 0 0 0 0 4 15 16 17 18 
10 0 0 1 0 0 4 24 23 21 20 
7 0 0 1 0 0 3 24 22 19 
9 0 0 6 0 0 3 24 22 19 
8 0 0 2 0 0 3 24 22 19 
8 0 0 2 0 0 1 23 
10 0 0 3 0 0 1 22 
7 0 0 3 0 0 1 22 
6 0 0 3 0 0 1 25 
6 0 0 2 0 0 1 25 
3 0 0 2 0 0 1 25 
0 0 0 0 0 0 1 62 
0 0 0 0 0 0 6 27 28 29 31 35 36 
10 0 0 0 1 0 3 34 33 30 
3 0 0 0 1 0 2 33 30 
8 0 0 0 3 0 2 33 30 
9 0 0 0 2 0 1 32 
2 0 0 0 4 0 1 34 
2 0 0 0 3 0 1 37 
4 0 0 0 3 0 1 37 
4 0 0 0 2 0 1 37 
3 0 0 0 2 0 1 37 
4 0 0 0 4 0 1 37 
0 0 0 0 0 0 1 62 
0 0 0 0 0 0 5 39 40 41 42 43 
9 0 1 0 0 0 2 45 44 
2 0 3 0 0 0 2 45 44 
9 0 1 0 0 0 2 45 44 
6 0 5 0 0 0 2 45 44 
6 0 4 0 0 0 2 47 44 
9 0 2 0 0 0 2 48 46 
8 0 2 0 0 0 2 47 46 
2 0 1 0 0 0 1 49 
8 0 4 0 0 0 1 49 
4 0 2 0 0 0 1 49 
0 0 0 0 0 0 1 62 
0 0 0 0 0 0 6 51 52 53 55 59 60 
5 1 0 0 0 0 2 57 54 
4 4 0 0 0 0 2 58 56 
9 2 0 0 0 0 2 57 56 
10 3 0 0 0 0 1 56 
4 3 0 0 0 0 1 56 
4 3 0 0 0 0 1 61 
4 2 0 0 0 0 1 61 
3 1 0 0 0 0 1 61 
10 4 0 0 0 0 1 61 
9 2 0 0 0 0 1 61 
0 0 0 0 0 0 1 62 
0 0 0 0 0 0 2 63 75 
0 0 0 0 0 0 5 64 65 66 68 69 
4 1 0 0 0 0 3 73 70 67 
6 3 0 0 0 0 2 70 67 
9 3 0 0 0 0 3 73 72 70 
4 2 0 0 0 0 2 72 71 
10 2 0 0 0 0 1 71 
2 2 0 0 0 0 1 70 
8 3 0 0 0 0 1 74 
4 4 0 0 0 0 1 74 
9 4 0 0 0 0 1 74 
10 1 0 0 0 0 1 74 
0 0 0 0 0 0 1 87 
0 0 0 0 0 0 2 76 77 
10 0 0 0 1 0 4 85 80 79 78 
7 0 0 0 1 0 2 79 78 
5 0 0 0 1 0 4 84 83 82 81 
3 0 0 0 4 0 3 84 83 81 
9 0 0 0 4 0 2 82 81 
10 0 0 0 2 0 1 86 
2 0 0 0 5 0 1 86 
6 0 0 0 2 0 1 86 
7 0 0 0 2 0 1 86 
5 0 0 0 3 0 1 86 
0 0 0 0 0 0 1 87 
0 0 0 0 0 0 4 88 89 90 93 
9 0 1 0 0 0 4 97 96 92 91 
10 0 2 0 0 0 3 96 92 91 
9 0 3 0 0 0 2 92 91 
8 0 2 0 0 0 2 95 94 
6 0 3 0 0 0 1 94 
3 0 2 0 0 0 1 94 
5 0 2 0 0 0 1 98 
8 0 4 0 0 0 1 98 
9 0 3 0 0 0 1 98 
1 0 3 0 0 0 1 98 
0 0 0 0 0 0 1 99 
0 0 0 0 0 0 7 100 101 102 104 107 108 109 
10 0 0 0 0 1 1 103 
4 0 0 0 0 1 1 103 
8 0 0 0 0 3 1 103 
2 0 0 0 0 1 2 106 105 
1 0 0 0 0 2 1 105 
3 0 0 0 0 1 1 110 
2 0 0 0 0 3 1 110 
3 0 0 0 0 4 1 110 
9 0 0 0 0 7 1 110 
5 0 0 0 0 2 1 110 
0 0 0 0 0 0 1 111 
0 0 0 0 0 0 5 112 113 114 116 117 
9 0 0 1 0 0 2 121 115 
7 0 0 4 0 0 2 121 115 
2 0 0 3 0 0 2 121 115 
1 0 0 3 0 0 3 120 119 118 
5 0 0 2 0 0 3 120 119 118 
1 0 0 2 0 0 2 119 118 
6 0 0 2 0 0 1 122 
1 0 0 4 0 0 1 122 
9 0 0 2 0 0 1 122 
4 0 0 2 0 0 1 122 
0 0 0 0 0 0 0 
